language ESSENCE' 1.0
$ Minion SolverNodes: 273
$ Minion SolverTotalTime: 0.048922
$ Minion SolverTimeOut: 0
$ Savile Row TotalTime: 0.68
letting M be [[26, 11, 39, 24, 12, 6, 47, 13, 8], 
[26, 11, 39, 24, 6, 47, 13, 8, -1], 
[26, 11, 39, 24, 8, 47, 13, -1, -1], 
[26, 8, 39, 24, 47, 13, -1, -1, -1], 
[26, 47, 39, 24, 13, -1, -1, -1, -1], 
[26, 39, 24, 13, -1, -1, -1, -1, -1], 
[26, 39, 13, -1, -1, -1, -1, -1, -1], 
[26, 13, -1, -1, -1, -1, -1, -1, -1], 
[13, -1, -1, -1, -1, -1, -1, -1, -1]]
